set VV := 0 1 2 3 4 5 6 7 8 9 10 11 12 13 14 15 16 17 18 19 20 21 22 23 24 25 26 27 28 29 30 31 32 33 34 35 36 37 38 39 40 41 42 43 44 45 46 ;
set VS := 0 1 2 3 4 5 6 7 8 9 10 11 12 13 14 15 16 17 18 19 20 21 22 23 24 25 26 27 28 29 30 31 32 33 34 35 36 37 38 39 40 41 42 43 44 45 46 47 48 49 50 51 52 53 54 55 56 57 58 59 60 61 62 63 64 65 66 67 68 69 70 71 72 73 74 75 76 77 78 79 80 81 82 83 84 85 86 87 88 89 90 91 92 93 94 95 96 97 98 ;
param cv := 
0 15
1 10
2 24
3 11
4 12
5 11
6 22
7 24
8 17
9 19
10 10
11 19
12 18
13 22
14 17
15 13
16 16
17 12
18 24
19 13
20 22
21 19
22 14
23 20
24 17
25 17
26 24
27 10
28 23
29 13
30 21
31 23
32 25
33 11
34 11
35 21
36 11
37 15
38 17
39 19
40 15
41 22
42 24
43 23
44 20
45 20
46 15
;
param cs := 
0 40
1 30
2 20
3 23
4 30
5 22
6 39
7 35
8 39
9 32
10 33
11 21
12 35
13 34
14 38
15 36
16 26
17 27
18 24
19 40
20 29
21 25
22 32
23 23
24 28
25 25
26 32
27 33
28 32
29 35
30 28
31 35
32 39
33 27
34 39
35 23
36 21
37 33
38 20
39 32
40 35
41 24
42 22
43 32
44 39
45 31
46 23
47 34
48 21
49 24
50 37
51 37
52 26
53 29
54 23
55 39
56 20
57 38
58 21
59 22
60 39
61 30
62 40
63 40
64 29
65 30
66 33
67 22
68 25
69 24
70 39
71 38
72 29
73 21
74 23
75 39
76 32
77 29
78 25
79 31
80 39
81 22
82 22
83 32
84 37
85 28
86 32
87 40
88 25
89 37
90 29
91 20
92 36
93 23
94 39
95 38
96 24
97 23
98 27
;
param bv:	 0 1 2 3 4 5 6 7 8 9 10 11 12 13 14 15 16 17 18 19 20 21 22 23 24 25 26 27 28 29 30 31 32 33 34 35 36 37 38 39 40 41 42 43 44 45 46 := 
		0 0 0 0 0 0 0 0 0 24 0 0 0 0 0 0 0 0 0 0 0 0 0 18 0 0 0 0 0 0 0 25 0 0 0 0 0 0 0 0 0 0 0 0 0 0 0 0 
		1 0 0 0 0 0 0 0 0 0 0 0 0 0 0 0 0 0 0 0 0 0 0 0 0 0 22 0 0 0 0 0 0 0 0 0 0 0 17 0 0 0 0 0 0 0 0 0 
		2 0 0 0 0 0 0 0 0 0 0 0 0 0 0 0 25 0 0 0 0 0 0 0 0 0 0 0 0 0 0 0 0 0 0 0 0 0 0 20 0 0 0 0 0 0 0 0 
		3 0 0 0 0 0 14 22 0 0 0 0 0 0 0 0 0 0 0 0 0 0 0 0 0 13 0 25 11 0 0 0 0 0 0 0 0 0 0 0 0 0 0 0 0 0 0 0 
		4 0 0 0 0 0 19 0 0 0 0 0 0 0 0 0 0 0 0 0 0 0 0 0 0 0 0 0 0 0 0 0 0 0 0 17 0 0 0 0 0 0 0 0 0 24 0 0 
		5 0 0 0 0 0 0 12 0 0 0 0 0 0 0 0 0 0 0 0 0 0 0 0 0 0 0 0 12 0 0 0 0 0 0 0 0 0 0 0 0 0 23 0 0 0 0 0 
		6 0 0 0 0 0 0 0 0 0 0 0 0 0 0 0 0 0 0 0 0 0 0 0 0 0 0 0 0 14 0 0 0 0 0 0 12 0 0 0 0 0 0 0 10 0 0 0 
		7 0 0 0 0 0 0 0 0 0 0 19 0 0 0 0 0 0 0 0 0 0 0 0 0 0 0 0 0 0 0 0 0 0 0 12 0 0 0 0 13 0 0 0 0 0 16 0 
		8 0 0 0 0 0 0 0 0 0 0 0 12 0 0 0 0 0 0 0 16 0 0 0 23 0 0 0 0 0 0 13 0 0 0 12 0 0 0 0 0 0 0 0 0 0 0 0 
		9 0 0 0 0 0 0 0 0 0 0 0 0 0 0 0 20 0 0 0 0 0 0 0 0 0 0 0 0 0 0 0 0 0 0 0 0 0 0 0 0 0 0 0 0 0 0 0 
		10 0 0 0 0 0 0 0 0 0 0 0 23 0 15 0 0 0 0 23 0 0 0 0 0 0 0 13 24 0 0 15 0 0 0 0 18 0 0 0 0 15 17 0 0 14 24 0 
		11 0 0 0 0 0 0 0 0 0 0 0 0 0 19 0 0 0 0 0 0 0 0 0 0 0 0 0 0 0 0 24 20 0 0 0 0 0 22 0 0 0 0 0 0 22 0 0 
		12 0 0 0 0 0 0 0 0 0 0 0 0 0 0 0 0 0 0 0 0 0 13 0 0 0 0 22 0 16 15 19 0 0 0 0 0 0 18 0 0 0 16 0 0 16 0 0 
		13 0 0 0 0 0 0 0 0 0 0 0 0 0 0 0 0 0 0 0 0 0 0 24 0 0 0 0 0 0 0 0 0 0 0 12 0 0 0 0 0 0 23 0 0 0 0 0 
		14 0 0 0 0 0 0 0 0 0 0 0 0 0 0 0 0 0 16 0 0 0 0 0 0 0 0 0 0 0 0 10 0 15 20 0 0 0 0 0 0 0 0 0 0 22 0 0 
		15 0 0 0 0 0 0 0 0 0 0 0 0 0 0 0 0 0 0 0 0 23 0 0 0 0 0 0 0 0 0 0 0 0 0 0 0 0 0 0 0 0 0 0 0 0 15 0 
		16 0 0 0 0 0 0 0 0 0 0 0 0 0 0 0 0 0 0 0 0 0 0 0 25 0 0 0 0 0 0 0 0 0 0 13 0 22 0 0 0 0 0 0 0 0 0 0 
		17 0 0 0 0 0 0 0 0 0 0 0 0 0 0 0 0 0 0 0 0 20 0 0 0 0 0 0 0 0 0 0 19 0 0 20 0 0 0 0 0 0 0 0 0 0 0 0 
		18 0 0 0 0 0 0 0 0 0 0 0 0 0 0 0 0 0 0 0 0 0 19 0 0 0 0 0 0 0 0 23 0 0 0 0 0 0 0 0 0 0 19 0 0 0 0 0 
		19 0 0 0 0 0 0 0 0 0 0 0 0 0 0 0 0 0 0 0 0 0 0 0 0 0 0 0 0 0 0 24 0 0 0 0 0 0 0 0 0 0 0 0 0 0 0 0 
		20 0 0 0 0 0 0 0 0 0 0 0 0 0 0 0 0 0 0 0 0 0 0 0 0 0 0 0 0 0 0 0 0 0 0 0 0 0 0 0 0 0 0 0 0 0 0 23 
		21 0 0 0 0 0 0 0 0 0 0 0 0 0 0 0 0 0 0 0 0 0 0 0 0 0 0 10 0 0 0 0 0 0 0 23 20 0 23 0 0 0 14 0 0 0 0 0 
		22 0 0 0 0 0 0 0 0 0 0 0 0 0 0 0 0 0 0 0 0 0 0 0 0 0 0 0 12 0 24 0 0 0 0 0 0 0 18 13 0 0 10 0 0 0 0 0 
		23 0 0 0 0 0 0 0 0 0 0 0 0 0 0 0 0 0 0 0 0 0 0 0 0 0 0 0 0 0 0 0 0 0 0 0 0 0 0 0 0 14 0 0 0 0 0 0 
		24 0 0 0 0 0 0 0 0 0 0 0 0 0 0 0 0 0 0 0 0 0 0 0 0 0 12 0 0 0 0 14 0 0 0 0 0 0 11 0 0 0 0 24 0 0 0 0 
		25 0 0 0 0 0 0 0 0 0 0 0 0 0 0 0 0 0 0 0 0 0 0 0 0 0 0 0 0 0 15 0 0 0 21 0 0 0 0 0 0 0 0 0 0 0 18 0 
		26 0 0 0 0 0 0 0 0 0 0 0 0 0 0 0 0 0 0 0 0 0 0 0 0 0 0 0 0 0 0 14 0 0 0 0 0 0 0 0 0 0 0 0 0 0 0 0 
		27 0 0 0 0 0 0 0 0 0 0 0 0 0 0 0 0 0 0 0 0 0 0 0 0 0 0 0 0 0 0 0 0 0 0 19 0 0 0 0 0 0 0 0 0 0 0 0 
		28 0 0 0 0 0 0 0 0 0 0 0 0 0 0 0 0 0 0 0 0 0 0 0 0 0 0 0 0 0 0 0 0 0 16 0 0 0 0 0 10 0 0 0 0 0 0 0 
		29 0 0 0 0 0 0 0 0 0 0 0 0 0 0 0 0 0 0 0 0 0 0 0 0 0 0 0 0 0 0 0 0 0 0 16 13 0 0 0 0 0 0 14 0 0 24 0 
		30 0 0 0 0 0 0 0 0 0 0 0 0 0 0 0 0 0 0 0 0 0 0 0 0 0 0 0 0 0 0 0 16 0 19 0 13 0 0 0 0 0 0 0 0 0 0 0 
		31 0 0 0 0 0 0 0 0 0 0 0 0 0 0 0 0 0 0 0 0 0 0 0 0 0 0 0 0 0 0 0 0 0 0 0 0 0 0 0 12 0 0 0 0 0 0 0 
		32 0 0 0 0 0 0 0 0 0 0 0 0 0 0 0 0 0 0 0 0 0 0 0 0 0 0 0 0 0 0 0 0 0 0 0 0 0 0 0 0 0 25 0 0 0 0 0 
		33 0 0 0 0 0 0 0 0 0 0 0 0 0 0 0 0 0 0 0 0 0 0 0 0 0 0 0 0 0 0 0 0 0 0 0 20 0 0 0 0 0 0 0 0 0 0 0 
		34 0 0 0 0 0 0 0 0 0 0 0 0 0 0 0 0 0 0 0 0 0 0 0 0 0 0 0 0 0 0 0 0 0 0 0 0 0 0 0 0 0 0 0 0 0 0 0 
		35 0 0 0 0 0 0 0 0 0 0 0 0 0 0 0 0 0 0 0 0 0 0 0 0 0 0 0 0 0 0 0 0 0 0 0 0 0 11 18 0 0 0 0 0 0 0 0 
		36 0 0 0 0 0 0 0 0 0 0 0 0 0 0 0 0 0 0 0 0 0 0 0 0 0 0 0 0 0 0 0 0 0 0 0 0 0 0 0 0 0 0 0 0 0 0 0 
		37 0 0 0 0 0 0 0 0 0 0 0 0 0 0 0 0 0 0 0 0 0 0 0 0 0 0 0 0 0 0 0 0 0 0 0 0 0 0 0 0 0 0 0 0 0 0 0 
		38 0 0 0 0 0 0 0 0 0 0 0 0 0 0 0 0 0 0 0 0 0 0 0 0 0 0 0 0 0 0 0 0 0 0 0 0 0 0 0 0 0 0 0 0 0 0 0 
		39 0 0 0 0 0 0 0 0 0 0 0 0 0 0 0 0 0 0 0 0 0 0 0 0 0 0 0 0 0 0 0 0 0 0 0 0 0 0 0 0 0 0 25 0 0 18 0 
		40 0 0 0 0 0 0 0 0 0 0 0 0 0 0 0 0 0 0 0 0 0 0 0 0 0 0 0 0 0 0 0 0 0 0 0 0 0 0 0 0 0 0 0 0 0 0 0 
		41 0 0 0 0 0 0 0 0 0 0 0 0 0 0 0 0 0 0 0 0 0 0 0 0 0 0 0 0 0 0 0 0 0 0 0 0 0 0 0 0 0 0 0 0 0 0 0 
		42 0 0 0 0 0 0 0 0 0 0 0 0 0 0 0 0 0 0 0 0 0 0 0 0 0 0 0 0 0 0 0 0 0 0 0 0 0 0 0 0 0 0 0 0 0 0 0 
		43 0 0 0 0 0 0 0 0 0 0 0 0 0 0 0 0 0 0 0 0 0 0 0 0 0 0 0 0 0 0 0 0 0 0 0 0 0 0 0 0 0 0 0 0 0 0 0 
		44 0 0 0 0 0 0 0 0 0 0 0 0 0 0 0 0 0 0 0 0 0 0 0 0 0 0 0 0 0 0 0 0 0 0 0 0 0 0 0 0 0 0 0 0 0 0 0 
		45 0 0 0 0 0 0 0 0 0 0 0 0 0 0 0 0 0 0 0 0 0 0 0 0 0 0 0 0 0 0 0 0 0 0 0 0 0 0 0 0 0 0 0 0 0 0 0 
		46 0 0 0 0 0 0 0 0 0 0 0 0 0 0 0 0 0 0 0 0 0 0 0 0 0 0 0 0 0 0 0 0 0 0 0 0 0 0 0 0 0 0 0 0 0 0 0 
;
param bs:	 0 1 2 3 4 5 6 7 8 9 10 11 12 13 14 15 16 17 18 19 20 21 22 23 24 25 26 27 28 29 30 31 32 33 34 35 36 37 38 39 40 41 42 43 44 45 46 47 48 49 50 51 52 53 54 55 56 57 58 59 60 61 62 63 64 65 66 67 68 69 70 71 72 73 74 75 76 77 78 79 80 81 82 83 84 85 86 87 88 89 90 91 92 93 94 95 96 97 98 := 
		0 0 0 0 0 0 0 0 36 0 0 0 25 0 0 0 0 26 0 0 35 0 0 0 32 0 0 0 0 0 0 0 0 0 0 0 28 33 0 0 0 0 0 0 0 0 0 0 0 0 0 0 0 0 0 0 0 0 0 0 0 0 21 0 0 0 0 0 0 0 0 0 0 0 0 0 0 0 0 0 0 0 0 0 0 0 0 0 0 0 20 0 0 0 0 0 0 0 28 0 
		1 0 0 0 40 0 0 0 0 0 0 0 0 0 0 0 0 0 0 0 0 0 0 0 0 0 0 0 29 30 28 26 0 29 0 0 0 0 0 0 0 0 0 0 0 0 0 0 29 0 0 0 0 0 0 0 0 31 0 0 27 0 0 0 38 0 0 0 32 36 0 0 39 0 0 0 0 0 35 0 0 0 0 0 0 34 0 0 0 0 0 0 40 0 0 0 0 0 0 0 
		2 0 0 0 0 0 0 0 0 27 0 0 0 0 0 0 0 0 0 0 0 0 0 0 0 0 0 0 0 39 0 0 0 0 0 0 0 0 0 0 0 0 0 0 0 0 0 0 0 0 0 0 0 0 0 0 0 0 0 0 0 0 0 0 0 0 0 0 0 0 0 0 0 0 0 0 0 0 0 0 0 39 0 0 0 0 0 0 0 0 0 0 0 0 0 0 0 0 0 0 
		3 0 40 0 0 0 0 0 0 0 0 0 0 0 0 22 0 0 0 0 0 0 0 0 0 0 0 0 0 0 0 0 0 0 39 0 0 0 0 0 0 0 0 0 0 0 0 0 0 0 33 0 0 0 0 0 30 0 0 0 0 0 0 0 0 0 0 37 0 0 0 0 0 0 0 0 0 0 0 0 0 0 0 0 0 0 0 0 0 0 0 0 0 0 0 0 0 0 0 0 
		4 0 0 0 0 0 0 0 0 0 25 0 0 0 0 20 0 0 0 21 0 0 0 0 0 0 0 0 0 0 0 29 0 0 20 0 0 0 24 0 0 0 0 0 0 33 0 0 30 27 0 0 0 0 0 0 0 0 0 0 0 0 0 29 0 39 0 0 33 0 0 0 0 23 0 0 0 0 0 0 31 0 33 0 0 30 28 39 0 0 0 0 21 0 0 0 0 0 0 0 
		5 0 0 0 0 0 0 0 0 0 0 0 0 0 0 0 0 0 0 0 0 0 0 0 33 0 0 0 32 0 0 0 0 0 0 0 0 31 0 0 0 0 22 0 36 0 32 0 27 0 0 0 0 0 0 0 0 0 0 0 0 0 0 0 0 0 0 0 30 32 0 0 0 0 0 0 28 32 0 31 0 0 0 0 0 0 0 0 0 0 0 0 0 0 0 0 22 0 0 0 
		6 0 0 0 0 0 0 0 0 0 0 0 0 0 40 0 0 0 0 0 28 0 0 0 0 0 0 0 0 0 0 0 21 23 0 0 0 0 0 31 36 0 0 0 0 37 0 0 21 0 0 0 0 0 0 0 0 0 28 29 0 0 0 0 33 0 0 0 0 28 0 0 0 0 0 0 0 0 0 0 0 0 0 0 0 0 0 21 0 0 0 0 27 0 0 0 35 0 26 0 
		7 36 0 0 0 0 0 0 0 36 0 0 0 35 0 0 0 32 0 34 0 0 0 21 0 0 0 0 0 0 0 0 31 0 0 0 0 34 0 0 0 0 0 0 0 0 27 0 29 0 0 0 0 0 0 0 0 0 0 0 0 30 31 0 21 0 0 0 0 0 32 0 0 0 0 0 0 24 0 38 0 0 0 0 0 0 0 0 0 0 0 0 28 0 0 0 0 0 0 0 
		8 0 0 27 0 0 0 0 36 0 0 0 0 0 0 0 0 0 0 0 40 0 0 0 0 0 30 0 0 0 0 0 0 0 0 0 0 0 0 0 0 0 0 0 32 0 40 36 0 0 0 0 0 0 0 0 0 0 0 0 0 0 0 0 0 24 0 0 0 0 0 31 0 0 0 0 0 0 0 0 0 0 0 0 0 0 0 0 0 0 21 0 0 0 0 0 0 0 34 0 
		9 0 0 0 0 25 0 0 0 0 0 0 0 0 0 0 0 0 0 38 0 25 0 34 0 0 0 0 0 0 0 0 32 26 0 0 0 0 0 0 0 0 0 0 0 0 0 0 0 0 0 0 0 0 0 0 25 0 0 0 0 0 0 0 0 0 0 0 0 0 0 0 0 0 0 0 0 0 0 0 24 35 35 0 0 30 0 0 0 0 0 0 38 0 0 0 0 0 27 0 
		10 0 0 0 0 0 0 0 0 0 0 0 0 29 0 0 0 0 0 27 0 0 0 0 0 0 20 0 0 0 26 40 26 0 0 0 0 0 0 0 0 0 0 0 0 0 0 0 0 35 0 0 24 0 0 0 0 0 0 0 0 21 0 0 0 26 35 0 0 0 0 0 0 0 0 0 27 0 0 0 0 38 0 0 0 0 0 0 0 0 0 0 0 0 0 0 0 25 0 0 
		11 25 0 0 0 0 0 0 0 0 0 0 0 0 0 0 0 34 0 0 0 0 0 0 0 0 0 0 0 0 0 0 0 0 0 0 0 31 0 0 0 0 0 0 0 0 0 0 20 0 0 0 25 0 0 0 0 0 0 0 0 0 0 28 0 0 0 0 0 0 0 0 0 0 0 0 0 0 0 27 0 0 0 0 0 0 39 0 0 30 0 0 0 0 37 0 0 0 0 0 
		12 0 0 0 0 0 0 0 35 0 0 29 0 0 0 0 0 37 22 0 0 0 0 0 0 0 0 0 0 0 0 0 0 0 0 0 0 0 0 0 0 0 0 35 26 0 0 0 37 0 0 0 0 26 0 0 0 0 0 0 0 24 33 28 0 0 0 0 0 0 0 0 0 0 0 0 0 31 0 0 0 0 0 0 0 0 0 0 0 0 22 0 0 0 0 23 0 35 0 0 
		13 0 0 0 0 0 0 40 0 0 0 0 0 0 0 0 0 0 0 0 0 0 37 0 0 0 32 0 20 0 0 0 0 39 0 0 0 24 0 0 0 0 0 0 0 0 0 0 0 0 0 0 0 0 0 29 0 0 0 0 0 0 0 0 0 0 0 35 0 0 0 0 0 0 0 0 0 0 22 0 0 0 0 0 0 29 0 0 0 0 0 0 0 0 0 0 28 0 0 0 
		14 0 0 0 22 20 0 0 0 0 0 0 0 0 0 0 0 0 0 0 0 0 0 0 0 0 0 0 0 0 0 0 39 20 0 0 0 0 0 0 0 0 0 0 0 0 0 0 0 0 0 0 0 0 0 0 0 0 0 34 0 0 0 0 0 0 34 0 0 0 0 0 0 0 0 0 23 31 0 0 0 0 0 0 0 0 0 0 0 0 32 0 0 0 0 0 0 0 0 0 
		15 0 0 0 0 0 0 0 0 0 0 0 0 0 0 0 0 0 0 0 25 34 0 0 0 0 0 0 0 0 0 0 0 0 0 0 0 0 0 0 27 0 0 0 0 0 0 0 22 0 0 0 0 0 0 0 0 0 0 0 0 0 0 0 0 0 0 0 0 0 0 0 0 0 0 39 0 23 0 0 0 0 0 0 0 0 0 0 0 0 0 0 0 0 0 0 0 0 0 29 
		16 26 0 0 0 0 0 0 32 0 0 0 34 37 0 0 0 0 0 0 0 0 0 0 0 0 0 0 0 25 0 0 31 0 0 0 0 0 0 0 0 0 0 0 0 0 23 26 0 0 20 0 0 0 0 0 0 0 23 0 0 0 0 0 0 0 0 0 0 0 0 0 0 39 0 0 0 0 0 0 0 0 0 0 0 0 0 0 0 0 0 0 0 0 0 0 0 0 0 0 
		17 0 0 0 0 0 0 0 0 0 0 0 0 22 0 0 0 0 0 0 26 0 0 27 0 0 0 0 0 0 0 38 0 0 0 0 0 0 0 0 0 0 0 21 32 0 0 0 0 0 0 0 0 0 0 0 0 0 0 0 0 0 24 0 0 0 0 0 0 0 24 0 0 0 0 39 0 39 0 32 0 0 0 0 0 0 0 0 38 0 33 0 0 0 0 0 0 0 32 0 
		18 0 0 0 0 21 0 0 34 0 38 27 0 0 0 0 0 0 0 0 0 0 31 0 0 0 0 0 0 23 32 0 0 0 30 0 0 26 0 0 0 0 0 0 0 0 31 0 0 0 38 0 0 0 0 0 0 0 0 0 0 0 0 0 0 0 26 0 0 0 0 26 0 0 0 0 0 0 0 0 0 0 0 0 20 0 33 0 0 0 0 0 0 0 0 0 0 0 0 0 
		19 35 0 0 0 0 0 28 0 40 0 0 0 0 0 0 25 0 26 0 0 0 0 0 0 0 0 38 0 0 0 0 0 0 0 0 0 0 0 0 0 0 0 0 31 0 0 0 0 0 0 0 0 0 0 0 34 0 0 0 0 28 0 0 0 0 0 0 0 0 0 0 0 0 0 0 0 0 0 0 0 0 0 0 0 0 0 0 0 23 0 0 0 0 0 0 0 0 0 0 
		20 0 0 0 0 0 0 0 0 0 25 0 0 0 0 0 34 0 0 0 0 0 0 29 0 38 0 0 0 0 0 0 0 0 0 0 0 0 0 0 0 0 0 0 0 38 0 0 39 0 0 0 0 0 35 0 0 0 0 0 25 0 0 0 0 0 0 31 0 28 0 39 0 0 0 0 0 0 31 0 0 0 0 0 0 35 0 0 0 0 0 0 0 0 0 0 0 0 33 0 
		21 0 0 0 0 0 0 0 0 0 0 0 0 0 37 0 0 0 0 31 0 0 0 0 0 28 0 0 0 0 0 0 0 40 0 0 0 0 0 0 0 0 0 21 0 0 0 0 0 0 0 0 0 0 0 0 0 0 0 20 0 0 0 26 0 0 0 33 0 0 0 0 0 0 0 29 0 0 0 0 0 0 38 0 0 0 0 0 0 0 0 26 0 0 0 0 0 0 0 0 
		22 0 0 0 0 0 0 0 21 0 34 0 0 0 0 0 0 0 27 0 0 29 0 0 0 0 0 0 0 0 26 0 0 0 0 0 0 0 40 0 0 40 0 0 0 0 0 36 37 0 0 32 0 0 0 0 0 0 0 0 0 39 0 0 0 0 0 0 0 0 0 0 0 0 0 31 0 0 0 0 0 0 0 0 0 29 0 0 0 0 31 0 0 0 0 0 0 0 0 0 
		23 32 0 0 0 0 33 0 0 0 0 0 0 0 0 0 0 0 0 0 0 0 0 0 0 0 27 0 0 0 0 0 0 0 0 0 0 30 0 0 0 0 0 0 0 0 0 0 0 0 0 0 0 0 0 37 0 0 0 0 0 0 0 0 0 0 0 0 0 0 0 0 0 0 0 0 0 0 0 24 0 0 0 0 0 0 0 0 0 0 0 0 0 0 0 0 0 40 29 0 
		24 0 0 0 0 0 0 0 0 0 0 0 0 0 0 0 0 0 0 0 0 38 28 0 0 0 0 0 0 0 0 0 0 0 0 0 0 0 0 38 0 0 0 0 0 0 0 0 0 0 37 24 0 0 0 0 0 0 0 0 0 0 0 0 0 0 0 0 0 0 0 0 0 0 0 0 0 0 0 0 0 0 0 0 40 0 0 0 0 0 0 36 38 0 0 0 0 0 0 40 
		25 0 0 0 0 0 0 0 0 30 0 20 0 0 32 0 0 0 0 0 0 0 0 0 27 0 0 0 0 0 0 0 20 0 0 0 0 0 0 0 0 0 0 0 0 0 0 0 0 0 0 0 0 0 0 0 0 28 0 0 0 0 0 0 0 0 0 0 0 0 0 0 0 0 0 0 0 0 0 0 0 0 22 0 0 0 0 0 0 0 0 0 36 0 0 0 0 0 0 0 
		26 0 0 0 0 0 0 0 0 0 0 0 0 0 0 0 0 0 0 0 38 0 0 0 0 0 0 0 0 0 0 0 0 0 0 0 0 0 22 0 0 0 0 0 0 0 0 31 34 0 0 0 0 0 0 0 0 0 0 28 0 0 0 0 0 0 0 0 0 0 0 0 0 0 0 0 0 0 0 0 0 0 0 0 0 0 0 0 0 21 0 0 0 0 0 0 0 0 0 0 
		27 0 29 0 0 0 32 0 0 0 0 0 0 0 20 0 0 0 0 0 0 0 0 0 0 0 0 0 0 0 0 0 0 0 0 0 0 0 0 0 0 0 0 0 0 0 0 0 0 0 0 0 0 0 0 0 0 0 0 0 0 0 0 0 0 0 0 0 39 0 0 0 0 0 0 0 0 0 0 0 0 0 0 0 0 0 29 0 0 0 0 0 0 0 0 0 0 0 0 0 
		28 0 30 39 0 0 0 0 0 0 0 0 0 0 0 0 0 25 0 23 0 0 0 0 0 0 0 0 0 0 0 0 0 0 0 0 0 0 0 0 0 0 0 0 0 0 0 0 24 0 0 0 0 0 33 0 0 0 0 0 0 0 0 0 0 0 0 0 0 0 0 30 0 0 0 0 0 0 0 0 0 0 0 0 0 0 0 0 0 0 0 0 0 0 0 0 0 0 0 0 
		29 0 28 0 0 0 0 0 0 0 0 26 0 0 0 0 0 0 0 32 0 0 0 26 0 0 0 0 0 0 0 0 0 0 0 39 0 0 21 0 0 0 0 0 0 0 0 0 0 0 30 0 0 0 0 0 0 0 0 0 0 0 0 0 0 36 0 0 0 0 0 0 0 0 0 0 0 0 0 0 0 0 0 0 28 0 0 0 0 0 0 0 0 0 0 0 0 0 0 0 
		30 0 26 0 0 29 0 0 0 0 0 40 0 0 0 0 0 0 38 0 0 0 0 0 0 0 0 0 0 0 0 0 0 0 0 0 0 34 0 0 0 0 0 0 0 0 35 0 0 0 0 0 0 0 0 0 0 0 20 0 0 35 24 0 0 36 0 0 0 0 37 0 0 0 0 0 0 0 0 0 0 26 0 0 0 0 0 0 0 0 0 0 0 0 31 0 0 0 0 0 
		31 0 0 0 0 0 0 21 31 0 32 26 0 0 0 39 0 31 0 0 0 0 0 0 0 0 20 0 0 0 0 0 0 0 0 0 0 0 0 0 0 0 0 0 0 0 0 0 0 31 0 0 0 0 0 0 0 0 0 0 0 0 0 0 21 0 0 0 0 0 0 0 0 0 0 0 0 23 0 38 28 0 0 0 0 0 0 0 0 0 0 0 0 0 0 0 0 0 31 0 
		32 0 29 0 0 0 0 23 0 0 26 0 0 0 39 20 0 0 0 0 0 0 40 0 0 0 0 0 0 0 0 0 0 0 0 0 0 0 0 0 0 0 0 0 0 0 0 0 0 0 0 0 0 0 0 0 30 0 0 0 0 0 0 0 0 0 0 0 0 0 0 0 30 0 0 0 0 0 0 0 0 0 0 0 0 0 0 23 0 0 0 0 0 0 0 0 0 0 0 0 
		33 0 0 0 39 20 0 0 0 0 0 0 0 0 0 0 0 0 0 30 0 0 0 0 0 0 0 0 0 0 0 0 0 0 0 0 0 0 0 0 0 0 0 0 0 0 0 0 0 0 0 0 0 0 0 39 0 0 0 0 0 0 0 0 0 0 0 0 0 0 0 30 39 0 0 0 31 0 0 0 0 0 0 0 0 0 0 0 0 0 0 0 0 0 0 0 0 31 0 0 
		34 0 0 0 0 0 0 0 0 0 0 0 0 0 0 0 0 0 0 0 0 0 0 0 0 0 0 0 0 0 39 0 0 0 0 0 28 32 0 27 0 0 27 0 0 0 0 0 0 0 0 0 0 0 0 0 0 0 39 33 0 0 0 0 0 0 0 0 0 0 0 0 0 0 0 0 33 0 0 0 34 0 39 0 0 0 21 29 0 0 0 0 0 0 0 0 30 0 0 0 
		35 28 0 0 0 0 0 0 0 0 0 0 0 0 0 0 0 0 0 0 0 0 0 0 0 0 0 0 0 0 0 0 0 0 0 28 0 0 38 0 0 0 21 0 0 0 0 0 0 0 0 0 0 0 0 0 0 0 0 0 23 0 0 0 0 0 0 0 0 0 0 0 0 0 0 0 0 0 0 0 0 0 0 0 0 0 0 0 0 0 0 0 0 0 0 24 0 0 0 38 
		36 33 0 0 0 0 31 0 34 0 0 0 31 0 24 0 0 0 0 26 0 0 0 0 30 0 0 0 0 0 0 34 0 0 0 32 0 0 0 0 0 0 0 0 26 0 0 33 0 0 0 0 0 0 0 0 0 0 0 0 0 0 0 0 0 25 0 0 0 0 23 22 0 0 0 0 0 34 0 0 0 31 0 36 39 0 0 0 0 0 21 0 0 0 0 0 0 38 0 0 
		37 0 0 0 0 24 0 0 0 0 0 0 0 0 0 0 0 0 0 0 0 0 0 40 0 0 0 22 0 0 21 0 0 0 0 0 38 0 0 0 0 0 0 0 0 29 0 0 31 0 0 0 0 0 30 0 0 0 40 0 0 23 0 35 0 0 0 0 0 0 0 0 0 0 0 30 0 0 0 0 0 0 0 0 0 38 27 0 0 29 0 0 0 0 0 40 0 0 38 0 
		38 0 0 0 0 0 0 31 0 0 0 0 0 0 0 0 0 0 0 0 0 0 0 0 0 38 0 0 0 0 0 0 0 0 0 27 0 0 0 0 0 0 0 0 0 0 0 0 0 0 0 26 0 0 0 0 33 0 39 39 0 23 0 0 0 0 40 23 26 0 0 0 0 0 0 0 0 0 0 0 0 0 0 0 0 20 0 0 0 0 0 0 0 0 0 0 0 0 0 0 
		39 0 0 0 0 0 0 36 0 0 0 0 0 0 0 0 27 0 0 0 0 0 0 0 0 0 0 0 0 0 0 0 0 0 0 0 0 0 0 0 0 0 0 0 0 0 0 0 29 0 0 27 0 0 0 0 0 0 0 0 0 23 0 0 0 0 0 0 0 0 0 0 0 0 0 25 0 0 0 0 0 0 0 0 0 0 0 0 0 38 0 0 0 0 0 0 0 0 0 0 
		40 0 0 0 0 0 0 0 0 0 0 0 0 0 0 0 0 0 0 0 0 0 0 40 0 0 0 0 0 0 0 0 0 0 0 0 0 0 0 0 0 0 0 0 0 0 0 0 0 0 0 0 0 35 0 0 0 0 0 0 23 0 0 0 0 0 0 0 0 0 0 0 0 0 0 0 0 0 0 33 0 0 0 0 0 0 0 0 0 0 0 0 22 0 0 0 0 40 0 0 
		41 0 0 0 0 0 22 0 0 0 0 0 0 0 0 0 0 0 0 0 0 0 0 0 0 0 0 0 0 0 0 0 0 0 0 27 21 0 0 0 0 0 0 0 0 0 0 0 0 0 0 0 0 0 0 0 0 32 0 0 0 0 0 33 0 0 0 0 0 0 0 0 0 0 0 0 0 23 0 0 0 0 0 0 0 0 0 0 0 0 0 0 0 0 0 0 25 0 0 0 
		42 0 0 0 0 0 0 0 0 0 0 0 0 35 0 0 0 0 21 0 0 0 21 0 0 0 0 0 0 0 0 0 0 0 0 0 0 0 0 0 0 0 0 0 0 37 0 0 0 0 0 0 0 0 0 0 0 24 0 0 0 0 0 0 0 0 0 0 0 0 0 0 0 0 0 0 0 30 0 32 31 0 0 0 0 0 0 0 0 0 0 0 0 0 0 0 22 0 0 0 
		43 0 0 0 0 0 36 0 0 32 0 0 0 26 0 0 0 0 32 0 31 0 0 0 0 0 0 0 0 0 0 0 0 0 0 0 0 26 0 0 0 0 0 0 0 0 0 0 27 0 0 0 0 0 0 0 0 0 0 0 0 0 0 0 0 0 0 0 0 0 0 30 28 0 0 0 0 0 0 24 0 0 0 0 20 0 0 0 0 0 22 0 34 0 22 36 28 0 29 0 
		44 0 0 0 0 33 0 37 0 0 0 0 0 0 0 0 0 0 0 0 0 38 0 0 0 0 0 0 0 0 0 0 0 0 0 0 0 0 29 0 0 0 0 37 0 0 0 0 0 0 0 0 0 0 24 0 0 0 0 0 0 0 0 26 0 0 0 0 0 0 0 0 0 0 0 0 0 0 0 0 0 0 0 0 0 0 0 0 0 0 0 0 0 0 0 0 0 0 24 0 
		45 0 0 0 0 0 32 0 27 40 0 0 0 0 0 0 0 23 0 31 0 0 0 0 0 0 0 0 0 0 0 35 0 0 0 0 0 0 0 0 0 0 0 0 0 0 0 0 0 0 34 0 0 0 0 0 0 0 0 0 0 0 29 0 0 0 0 0 0 0 0 0 0 0 0 0 0 0 0 26 24 0 0 0 0 0 0 0 0 0 0 0 0 0 0 31 0 40 0 0 
		46 0 0 0 0 0 0 0 0 36 0 0 0 0 0 0 0 26 0 0 0 0 0 36 0 0 0 31 0 0 0 0 0 0 0 0 0 33 0 0 0 0 0 0 0 0 0 0 0 0 0 0 0 26 0 0 0 0 0 0 0 0 39 0 0 0 30 0 0 0 0 0 0 0 0 0 0 31 0 0 0 0 0 33 0 0 0 0 0 0 0 0 0 0 0 0 27 0 0 0 
		47 0 29 0 0 30 27 21 29 0 0 0 20 37 0 0 22 0 0 0 0 39 0 37 0 0 0 34 0 24 0 0 0 0 0 0 0 0 31 0 29 0 0 0 27 0 0 0 0 0 0 0 0 0 0 0 0 0 0 0 20 31 32 0 0 0 0 0 28 0 0 34 0 0 0 0 23 0 0 0 0 0 0 0 0 0 0 0 0 0 0 0 0 0 0 0 0 0 0 0 
		48 0 0 0 0 27 0 0 0 0 0 35 0 0 0 0 0 0 0 0 0 0 0 0 0 0 0 0 0 0 0 0 31 0 0 0 0 0 0 0 0 0 0 0 0 0 0 0 0 0 0 0 0 0 0 32 0 0 0 28 0 0 0 0 0 0 0 0 21 0 0 0 21 0 0 0 0 0 32 0 0 0 0 0 0 0 0 0 0 0 0 0 0 0 0 0 0 0 0 0 
		49 0 0 0 33 0 0 0 0 0 0 0 0 0 0 0 0 20 0 38 0 0 0 0 0 37 0 0 0 0 30 0 0 0 0 0 0 0 0 0 0 0 0 0 0 0 34 0 0 0 0 0 0 0 0 0 0 0 0 0 0 0 0 0 0 0 0 0 0 0 0 0 33 0 0 0 35 0 0 0 0 31 0 0 0 0 0 0 0 0 0 0 0 0 0 0 0 0 0 0 
		50 0 0 0 0 0 0 0 0 0 0 0 0 0 0 0 0 0 0 0 0 0 0 32 0 24 0 0 0 0 0 0 0 0 0 0 0 0 0 26 27 0 0 0 0 0 0 0 0 0 0 0 0 0 0 0 0 0 0 0 34 0 0 0 0 0 0 0 0 0 0 0 0 0 0 0 0 0 0 0 0 0 29 0 0 31 0 0 0 25 0 32 0 0 0 0 0 0 0 0 
		51 0 0 0 0 0 0 0 0 0 0 24 25 0 0 0 0 0 0 0 0 0 0 0 0 0 0 0 0 0 0 0 0 0 0 0 0 0 0 0 0 0 0 0 0 0 0 0 0 0 0 0 0 0 0 0 0 0 0 0 0 0 0 0 33 34 0 0 0 0 0 25 0 0 0 0 0 38 0 0 0 0 0 0 0 0 0 0 0 0 0 0 0 0 0 0 0 0 0 0 
		52 0 0 0 0 0 0 0 0 0 0 0 0 26 0 0 0 0 0 0 0 0 0 0 0 0 0 0 0 0 0 0 0 0 0 0 0 0 0 0 0 35 0 0 0 0 0 26 0 0 0 0 0 0 0 0 0 0 0 0 0 0 31 0 0 0 0 0 0 0 0 0 0 0 0 0 0 0 0 0 0 0 0 0 0 0 0 0 28 0 0 0 0 0 0 0 36 0 0 0 
		53 0 0 0 0 0 0 0 0 0 0 0 0 0 0 0 0 0 0 0 0 35 0 0 0 0 0 0 0 33 0 0 0 0 0 0 0 0 30 0 0 0 0 0 0 24 0 0 0 0 0 0 0 0 0 0 0 0 0 0 0 0 0 0 0 0 0 0 0 0 0 0 0 0 0 0 0 0 0 0 0 0 0 0 0 0 22 0 0 20 28 35 31 0 0 26 0 0 0 0 
		54 0 0 0 0 0 0 0 0 0 0 0 0 0 29 0 0 0 0 0 0 0 0 0 37 0 0 0 0 0 0 0 0 0 39 0 0 0 0 0 0 0 0 0 0 0 0 0 0 32 0 0 0 0 0 0 0 0 0 0 0 0 0 0 0 0 0 0 0 0 0 0 0 0 0 0 0 0 0 0 0 0 0 0 0 0 0 0 0 0 0 0 0 34 0 0 0 0 0 0 
		55 0 0 0 30 0 0 0 0 0 25 0 0 0 0 0 0 0 0 0 34 0 0 0 0 0 0 0 0 0 0 0 0 30 0 0 0 0 0 33 0 0 0 0 0 0 0 0 0 0 0 0 0 0 0 0 0 37 0 0 0 0 0 0 0 0 40 0 0 0 36 0 0 25 0 0 0 0 0 0 0 0 0 0 0 0 0 0 0 0 0 0 0 0 0 0 0 0 0 0 
		56 0 31 0 0 0 0 0 0 0 0 0 0 0 0 0 0 0 0 0 0 0 0 0 0 0 28 0 0 0 0 0 0 0 0 0 0 0 0 0 0 0 32 24 0 0 0 0 0 0 0 0 0 0 0 0 37 0 0 0 0 0 0 0 0 0 0 0 0 0 0 0 0 0 0 0 0 0 0 0 26 0 0 0 0 0 0 0 0 0 0 0 0 0 0 0 0 0 0 0 
		57 0 0 0 0 0 0 28 0 0 0 0 0 0 0 0 0 23 0 0 0 0 0 0 0 0 0 0 0 0 0 20 0 0 0 39 0 0 40 39 0 0 0 0 0 0 0 0 0 0 0 0 0 0 0 0 0 0 0 32 0 0 0 0 29 0 0 34 0 0 0 0 0 0 0 0 0 0 0 0 0 0 0 0 0 0 0 0 0 0 0 0 0 0 0 0 0 0 0 0 
		58 0 0 0 0 0 0 29 0 0 0 0 0 0 0 34 0 0 0 0 0 0 20 0 0 0 0 28 0 0 0 0 0 0 0 33 0 0 0 39 0 0 0 0 0 0 0 0 0 28 0 0 0 0 0 0 0 0 32 0 0 0 0 0 0 0 0 0 0 31 0 0 0 0 0 0 0 0 0 0 0 0 21 0 0 0 0 33 0 0 0 0 0 28 0 28 0 0 0 26 
		59 0 27 0 0 0 0 0 0 0 0 0 0 0 0 0 0 0 0 0 0 25 0 0 0 0 0 0 0 0 0 0 0 0 0 0 23 0 0 0 0 23 0 0 0 0 0 0 20 0 0 34 0 0 0 0 0 0 0 0 0 0 0 0 0 0 0 0 22 0 0 0 0 32 0 0 0 0 32 0 0 0 0 28 0 0 0 0 0 0 0 0 22 0 0 0 0 0 39 0 
		60 0 0 0 0 0 0 0 30 0 0 21 0 24 0 0 0 0 0 0 28 0 0 39 0 0 0 0 0 0 0 35 0 0 0 0 0 0 23 23 23 0 0 0 0 0 0 0 31 0 0 0 0 0 0 0 0 0 0 0 0 0 0 0 0 0 27 0 37 0 0 0 0 0 0 0 24 0 0 0 0 0 38 0 0 0 0 0 0 0 23 0 34 0 27 0 0 0 0 0 
		61 21 0 0 0 0 0 0 31 0 0 0 0 33 0 0 0 0 24 0 0 0 0 0 0 0 0 0 0 0 0 24 0 0 0 0 0 0 0 0 0 0 0 0 0 0 29 39 32 0 0 0 0 31 0 0 0 0 0 0 0 0 0 0 0 0 0 0 0 0 0 0 0 0 0 26 0 23 0 0 0 0 0 0 37 0 0 0 0 0 38 0 0 0 0 0 0 0 0 0 
		62 0 0 0 0 29 0 0 0 0 0 0 28 28 0 0 0 0 0 0 0 0 26 0 0 0 0 0 0 0 0 0 0 0 0 0 0 0 35 0 0 0 33 0 0 26 0 0 0 0 0 0 0 0 0 0 0 0 0 0 0 0 0 0 0 0 0 0 0 0 0 0 0 0 0 0 0 0 0 0 0 0 0 0 0 0 0 0 0 0 0 0 0 0 0 28 0 0 40 0 
		63 0 38 0 0 0 0 33 21 0 0 0 0 0 0 0 0 0 0 0 0 0 0 0 0 0 0 0 0 0 0 0 21 0 0 0 0 0 0 0 0 0 0 0 0 0 0 0 0 0 0 0 33 0 0 0 0 0 29 0 0 0 0 0 0 0 0 0 0 23 0 0 0 0 0 0 0 0 0 0 0 0 32 0 0 0 0 0 0 0 0 0 0 31 0 0 0 0 0 40 
		64 0 0 0 0 39 0 0 0 24 0 26 0 0 0 0 0 0 0 0 0 0 0 0 0 0 0 0 0 0 36 36 0 0 0 0 0 25 0 0 0 0 0 0 0 0 0 0 0 0 0 0 34 0 0 0 0 0 0 0 0 0 0 0 0 0 0 0 0 0 0 0 0 0 0 0 26 34 0 0 0 26 0 24 0 0 0 0 0 0 0 0 0 0 0 0 0 0 0 0 
		65 0 0 0 0 0 0 0 0 0 0 35 0 0 0 34 0 0 0 26 0 0 0 0 0 0 0 0 0 0 0 0 0 0 0 0 0 0 0 40 0 0 0 0 0 0 0 30 0 0 0 0 0 0 0 0 40 0 0 0 0 27 0 0 0 0 0 0 0 0 0 0 38 0 0 0 25 0 0 0 0 0 0 32 0 0 0 0 0 0 0 0 0 0 0 0 0 0 38 0 
		66 0 0 0 37 0 0 0 0 0 0 0 0 0 35 0 0 0 0 0 0 31 33 0 0 0 0 0 0 0 0 0 0 0 0 0 0 0 0 23 0 0 0 0 0 0 0 0 0 0 0 0 0 0 0 0 0 0 34 0 0 0 0 0 0 0 0 0 34 0 0 0 37 22 0 0 0 0 0 0 0 0 0 0 0 0 0 0 0 0 0 0 0 0 0 0 34 0 0 22 
		67 0 32 0 0 33 30 0 0 0 0 0 0 0 0 0 0 0 0 0 0 0 0 0 0 0 0 0 39 0 0 0 0 0 0 0 0 0 0 26 0 0 0 0 0 0 0 0 28 21 0 0 0 0 0 0 0 0 0 0 22 37 0 0 0 0 0 34 0 0 0 0 0 0 0 0 0 0 0 0 0 0 0 0 0 0 0 33 0 0 0 0 0 0 0 0 0 0 39 0 
		68 0 36 0 0 0 32 28 0 0 0 0 0 0 0 0 0 0 0 0 0 28 0 0 0 0 0 0 0 0 0 0 0 0 0 0 0 0 0 0 0 0 0 0 0 0 0 0 0 0 0 0 0 0 0 0 0 0 0 31 0 0 0 0 23 0 0 0 0 0 0 0 0 0 0 0 0 0 0 0 0 0 0 0 0 0 0 25 0 0 0 0 0 0 0 0 0 0 0 0 
		69 0 0 0 0 0 0 0 32 0 0 0 0 0 0 0 0 0 24 0 0 0 0 0 0 0 0 0 0 0 0 37 0 0 0 0 0 23 0 0 0 0 0 0 0 0 0 0 0 0 0 0 0 0 0 0 36 0 0 0 0 0 0 0 0 0 0 0 0 0 0 37 0 0 26 0 0 20 0 0 0 0 0 0 0 0 0 0 0 0 29 0 20 0 0 0 0 0 0 0 
		70 0 0 0 0 0 0 0 0 31 0 0 0 0 0 0 0 0 0 26 0 39 0 0 0 0 0 0 0 30 0 0 0 0 30 0 0 22 0 0 0 0 0 0 30 0 0 0 34 0 0 0 25 0 0 0 0 0 0 0 0 0 0 0 0 0 0 0 0 0 37 0 0 0 0 0 0 0 0 0 0 0 0 0 0 0 0 0 32 0 0 0 0 0 0 0 0 0 0 0 
		71 0 39 0 0 0 0 0 0 0 0 0 0 0 0 0 0 0 0 0 0 0 0 0 0 0 0 0 0 0 0 0 0 30 39 0 0 0 0 0 0 0 0 0 28 0 0 0 0 21 33 0 0 0 0 0 0 0 0 0 0 0 0 0 0 0 38 37 0 0 0 0 0 0 0 0 0 0 0 0 0 0 0 0 0 0 0 0 0 0 0 0 0 0 0 0 0 0 0 0 
		72 0 0 0 0 23 0 0 0 0 0 0 0 0 0 0 0 39 0 0 0 0 0 0 0 0 0 0 0 0 0 0 0 0 0 0 0 0 0 0 0 0 0 0 0 0 0 0 0 0 0 0 0 0 0 0 25 0 0 0 32 0 0 0 0 0 0 22 0 0 0 0 0 0 0 0 0 0 0 0 0 0 20 0 0 0 0 40 0 0 0 0 0 0 0 0 0 0 0 0 
		73 0 0 0 0 0 0 0 0 0 0 0 0 0 0 0 0 0 0 0 0 0 0 0 0 0 0 0 0 0 0 0 0 0 0 0 0 0 0 0 0 0 0 0 0 0 0 0 0 0 0 0 0 0 0 0 0 0 0 0 0 0 0 0 0 0 0 0 0 0 26 0 0 0 0 0 0 0 0 0 0 0 21 0 0 0 36 22 0 0 0 0 0 0 0 0 0 0 0 0 
		74 0 0 0 0 0 0 0 0 0 0 0 0 0 0 0 39 0 39 0 0 0 29 31 0 0 0 0 0 0 0 0 0 0 0 0 0 0 30 0 25 0 0 0 0 0 0 0 0 0 0 0 0 0 0 0 0 0 0 0 0 0 26 0 0 0 0 0 0 0 0 0 0 0 0 0 0 0 0 0 0 0 0 0 0 0 0 0 0 0 37 0 0 0 38 0 0 0 0 0 
		75 0 0 0 0 0 28 0 0 0 0 27 0 0 0 23 0 0 0 0 0 0 0 0 0 0 0 0 0 0 0 0 0 0 31 33 0 0 0 0 0 0 0 0 0 0 0 0 23 0 35 0 0 0 0 0 0 0 0 0 0 24 0 0 0 26 25 0 0 0 0 0 0 0 0 0 0 0 0 0 0 0 0 0 0 0 0 0 0 0 0 0 0 0 0 0 0 0 34 0 
		76 0 0 0 0 0 32 0 24 0 0 0 0 31 0 31 23 0 39 0 0 0 0 0 0 0 0 0 0 0 0 0 23 0 0 0 0 34 0 0 0 0 23 30 0 0 0 31 0 0 0 0 38 0 0 0 0 0 0 0 0 0 23 0 0 34 0 0 0 0 20 0 0 0 0 0 0 0 0 0 0 0 0 0 0 0 0 0 35 0 0 0 0 0 0 0 23 34 40 0 
		77 0 35 0 0 0 0 0 0 0 0 0 0 0 22 0 0 0 0 0 0 31 0 0 0 0 0 0 0 0 0 0 0 0 0 0 0 0 0 0 0 0 0 0 0 0 0 0 0 32 0 0 0 0 0 0 0 0 0 0 32 0 0 0 0 0 0 0 0 0 0 0 0 0 0 0 0 0 0 0 0 0 0 0 0 0 0 0 0 0 0 29 0 0 0 0 0 0 20 0 
		78 0 0 0 0 0 31 0 38 0 0 0 27 0 0 0 0 0 32 0 0 0 0 0 24 0 0 0 0 0 0 0 38 0 0 0 0 0 0 0 0 33 0 32 24 0 26 0 0 0 0 0 0 0 0 0 0 0 0 0 0 0 0 0 0 0 0 0 0 0 0 0 0 0 0 0 0 0 0 0 22 0 0 0 24 0 0 0 0 33 0 0 31 0 0 0 38 0 0 0 
		79 0 0 0 0 31 0 0 0 0 24 0 0 0 0 0 0 0 0 0 0 0 0 0 0 0 0 0 0 0 0 0 28 0 0 34 0 0 0 0 0 0 0 31 0 0 24 0 0 0 0 0 0 0 0 0 0 26 0 0 0 0 0 0 0 0 0 0 0 0 0 0 0 0 0 0 0 0 0 22 0 0 0 0 0 20 38 25 0 0 0 0 33 0 0 0 0 0 0 24 
		80 0 0 39 0 0 0 0 0 0 35 38 0 0 0 0 0 0 0 0 0 0 0 0 0 0 0 0 0 0 0 26 0 0 0 0 0 31 0 0 0 0 0 0 0 0 0 0 0 0 31 0 0 0 0 0 0 0 0 0 0 0 0 0 0 26 0 0 0 0 0 0 0 0 0 0 0 0 0 0 0 0 0 0 0 0 0 0 0 0 0 0 0 0 0 0 20 27 0 0 
		81 0 0 0 0 33 0 0 0 0 35 0 0 0 0 0 0 0 0 0 0 0 38 0 0 0 22 0 0 0 0 0 0 0 0 39 0 0 0 0 0 0 0 0 0 0 0 0 0 0 0 29 0 0 0 0 0 0 0 21 0 38 0 0 32 0 0 0 0 0 0 0 0 20 21 0 0 0 0 0 0 0 0 0 0 0 21 24 0 0 0 0 0 0 0 0 0 0 0 0 
		82 0 0 0 0 0 0 0 0 0 0 0 0 0 0 0 0 0 0 0 0 0 0 0 0 0 0 0 0 0 0 0 0 0 0 0 0 36 0 0 0 0 0 0 0 0 0 33 0 0 0 0 0 0 0 0 0 0 0 0 28 0 0 0 0 24 32 0 0 0 0 0 0 0 0 0 0 0 0 0 0 0 0 0 0 0 0 0 0 0 22 0 0 0 0 0 25 0 0 0 
		83 0 0 0 0 0 0 0 0 0 0 0 0 0 0 0 0 0 0 20 0 0 0 0 0 40 0 0 0 0 28 0 0 0 0 0 0 39 0 0 0 0 0 0 20 0 0 0 0 0 0 0 0 0 0 0 0 0 0 0 0 0 37 0 0 0 0 0 0 0 0 0 0 0 0 0 0 0 0 24 0 0 0 0 0 0 0 0 25 0 0 0 0 0 0 0 0 28 0 30 
		84 0 34 0 0 30 0 0 0 0 30 0 0 0 29 0 0 0 0 0 0 35 0 29 0 0 0 0 0 0 0 0 0 0 0 0 0 0 38 20 0 0 0 0 0 0 0 0 0 0 0 31 0 0 0 0 0 0 0 0 0 0 0 0 0 0 0 0 0 0 0 0 0 0 0 0 0 0 0 0 20 0 0 0 0 0 34 0 0 0 0 0 0 0 0 34 28 0 0 0 
		85 0 0 0 0 28 0 0 0 0 0 0 39 0 0 0 0 0 0 33 0 0 0 0 0 0 0 0 29 0 0 0 0 0 0 21 0 0 27 0 0 0 0 0 0 0 0 0 0 0 0 0 0 0 22 0 0 0 0 0 0 0 0 0 0 0 0 0 0 0 0 0 0 0 36 0 0 0 0 0 38 0 21 0 0 34 0 0 0 0 0 0 0 0 0 0 0 0 21 0 
		86 0 0 0 0 39 0 21 0 0 0 0 0 0 0 0 0 0 0 0 0 0 0 0 0 0 0 0 0 0 0 0 0 23 0 29 0 0 0 0 0 0 0 0 0 0 0 0 0 0 0 0 0 0 0 0 0 0 0 33 0 0 0 0 0 0 0 0 33 25 0 0 0 40 22 0 0 0 0 0 25 0 24 0 0 0 0 0 0 0 0 0 0 0 0 0 0 0 0 0 
		87 0 0 0 0 0 0 0 0 0 0 0 0 0 0 0 0 0 38 0 0 0 0 0 0 0 0 0 0 0 0 0 0 0 0 0 0 0 0 0 0 0 0 0 0 0 0 0 0 0 0 0 0 28 0 0 0 0 0 0 0 0 0 0 0 0 0 0 0 0 0 32 0 0 0 0 0 35 0 0 0 0 0 0 25 0 0 0 0 0 33 0 0 0 21 0 0 0 0 0 
		88 0 0 0 0 0 0 0 0 0 0 0 30 0 0 0 0 0 0 0 23 0 0 0 0 0 0 21 0 0 0 0 0 0 0 0 0 0 29 0 38 0 0 0 0 0 0 0 0 0 0 25 0 0 20 0 0 0 0 0 0 0 0 0 0 0 0 0 0 0 0 0 0 0 0 0 0 0 0 33 0 0 0 0 0 0 0 0 0 0 38 32 27 0 0 0 0 0 24 0 
		89 20 0 0 0 0 0 0 0 21 0 0 0 22 0 32 0 0 33 0 0 0 0 31 0 0 0 0 0 0 0 0 0 0 0 0 0 21 0 0 0 0 0 0 22 0 0 0 0 0 0 0 0 0 28 0 0 0 0 0 0 23 38 0 0 0 0 0 0 0 29 0 0 0 0 37 0 0 0 0 0 0 0 22 0 0 0 0 33 38 0 0 0 0 35 38 32 0 0 0 
		90 0 0 0 0 0 0 0 0 0 0 0 0 0 0 0 0 0 0 0 0 0 26 0 0 36 0 0 0 0 0 0 0 0 0 0 0 0 0 0 0 0 0 0 0 0 0 0 0 0 0 32 0 0 35 0 0 0 0 0 0 0 0 0 0 0 0 0 0 0 0 0 0 0 0 0 0 0 29 0 0 0 0 0 0 0 0 0 0 32 0 0 0 0 0 0 0 0 0 0 
		91 0 40 0 0 21 0 27 28 0 38 0 0 0 0 0 0 0 0 0 0 0 0 0 0 38 36 0 0 0 0 0 0 0 0 0 0 0 0 0 0 22 0 0 34 0 0 0 0 0 0 0 0 0 31 0 0 0 0 0 22 34 0 0 0 0 0 0 0 0 20 0 0 0 0 0 0 0 0 31 33 0 0 0 0 0 0 0 0 27 0 0 0 0 0 0 0 0 0 27 
		92 0 0 0 0 0 0 0 0 0 0 0 0 0 0 0 0 0 0 0 0 0 0 0 0 0 0 0 0 0 0 0 0 0 0 0 0 0 0 0 0 0 0 0 0 0 0 0 0 0 0 0 0 0 0 34 0 0 0 28 0 0 0 0 31 0 0 0 0 0 0 0 0 0 0 0 0 0 0 0 0 0 0 0 0 0 0 0 0 0 0 0 0 0 0 0 0 0 32 0 
		93 0 0 0 0 0 0 0 0 0 0 0 37 0 0 0 0 0 0 0 0 0 0 0 0 0 0 0 0 0 0 31 0 0 0 0 0 0 0 0 0 0 0 0 22 0 0 0 0 0 0 0 0 0 0 0 0 0 0 0 0 27 0 0 0 0 0 0 0 0 0 0 0 0 0 38 0 0 0 0 0 0 0 0 0 0 0 0 21 0 35 0 0 0 0 32 0 0 0 30 
		94 0 0 0 0 0 0 0 0 0 0 0 0 23 0 0 0 0 0 0 0 0 0 0 0 0 0 0 0 0 0 0 0 0 0 0 24 0 40 0 0 0 0 0 36 0 31 0 0 0 0 0 0 0 26 0 0 0 0 28 0 0 0 28 0 0 0 0 0 0 0 0 0 0 0 0 0 0 0 0 0 0 0 0 0 34 0 0 0 0 38 0 0 0 32 0 0 0 0 0 
		95 0 0 0 0 0 22 35 0 0 0 0 0 0 28 0 0 0 0 0 0 0 0 0 0 0 0 0 0 0 0 0 0 0 0 30 0 0 0 0 0 0 25 22 28 0 0 27 0 0 0 0 0 36 0 0 0 0 0 0 0 0 0 0 0 0 0 34 0 0 0 0 0 0 0 0 0 23 0 38 0 20 0 25 0 28 0 0 0 0 32 0 0 0 0 0 0 0 0 0 
		96 0 0 0 0 0 0 0 0 0 0 25 0 35 0 0 0 0 0 0 0 0 0 0 40 0 0 0 0 0 0 0 0 0 31 0 0 38 0 0 0 40 0 0 0 0 40 0 0 0 0 0 0 0 0 0 0 0 0 0 0 0 0 0 0 0 0 0 0 0 0 0 0 0 0 0 0 34 0 0 0 27 0 0 28 0 0 0 0 0 0 0 0 0 0 0 0 0 0 0 
		97 28 0 0 0 0 0 26 0 34 27 0 0 0 0 0 0 0 32 0 0 33 0 0 29 0 0 0 0 0 0 0 31 0 0 0 0 0 38 0 0 0 0 0 29 24 0 0 0 0 0 0 0 0 0 0 0 0 0 0 39 0 0 40 0 0 38 0 39 0 0 0 0 0 0 0 34 40 20 0 0 0 0 0 0 0 21 0 0 24 0 0 0 32 0 0 0 0 0 0 
		98 0 0 0 0 0 0 0 0 0 0 0 0 0 0 0 29 0 0 0 0 0 0 0 0 40 0 0 0 0 0 0 0 0 0 0 38 0 0 0 0 0 0 0 0 0 0 0 0 0 0 0 0 0 0 0 0 0 0 26 0 0 0 0 40 0 0 22 0 0 0 0 0 0 0 0 0 0 0 0 24 0 0 0 30 0 0 0 0 0 0 0 27 0 30 0 0 0 0 0 
;
